Maximize

y_0 + y_1 + y_2 + y_3


Subject To

a0: x_0_0 + x_0_1 + x_0_2 + x_0_3 <= 1
a1: x_1_0 + x_1_1 + x_1_2 + x_1_3 <= 1
a2: x_2_0 + x_2_1 + x_2_2 + x_2_3 <= 1
a3: x_3_0 + x_3_1 + x_3_2 + x_3_3 <= 1
a4: x_4_0 + x_4_1 + x_4_2 + x_4_3 <= 1
a5: x_5_0 + x_5_1 + x_5_2 + x_5_3 <= 1
a6: x_6_0 + x_6_1 + x_6_2 + x_6_3 <= 1
b0: 1 x_0_0 + 2 x_1_0 + 2 x_2_0 + 3 x_6_0 - 10 y_0 = 0
b1: 1 x_0_1 + 4 x_3_1 + 5 x_4_1 + 3 x_6_1 - 9 y_1 = 0
b2: 2 x_1_2 + 4 x_3_2 + 4 x_5_2 - 8 y_2 = 0
b3: 2 x_2_3 + 5 x_4_3 + 4 x_5_3 - 7 y_3 = 0




Binary

x_0_0 x_0_1 x_0_2 x_0_3 x_1_0 x_1_1 x_1_2 x_1_3 x_2_0 x_2_1 x_2_2 x_2_3 x_3_0 x_3_1 x_3_2 x_3_3 x_4_0 x_4_1 x_4_2 x_4_3 x_5_0 x_5_1 x_5_2 x_5_3 x_6_0 x_6_1 x_6_2 x_6_3 y_0 y_1 y_2 y_3

 


End
